\ Model _copy
\ LP format - for model browsing. Use MPS format to capture full model detail.
Minimize
 
Subject To
 gshed_da_max(ng101,k0,t1): gshed_da(ng101,k0,t1) <= 0
 gas_balance_da(ng101,k0,t1): gshed_da(ng101,k0,t1) + gprod(gw1,k0,t1)
   = 400
 gprod_max(gw1,k0,t1): gprod(gw1,k0,t1) <= 0.01
Bounds
 gshed_da(ng101,k0,t1) free
 gprod(gw1,k0,t1) free
End
